networks/zoo_56_605/zoo_56_605-lower.txt
Number of groups: 29
Flow 17: {11 18 0} {18 46 0} 
Flow 22: {1 7 0} {7 3 0} {3 21 0} {21 23 0} {23 51 0} 
Flow 25: {1 2 0} {2 4 0} {4 26 0} {26 54 0} 
Flow 26: {26 27 0} {27 55 0} 
Flow 46: {4 3 0} {3 16 0} {16 20 0} {20 48 0} 
Flow 55: {3 7 0} {7 1 0} 
Flow 86: {5 15 0} {15 6 0} {6 34 0} 
Flow 111: {6 15 0} {15 25 0} {25 23 0} {23 17 0} {17 45 0} 
Flow 116: {7 2 0} {2 30 0} 
Flow 144: {22 16 0} {16 3 0} {3 31 0} 
Flow 146: {8 17 0} {17 24 0} {24 25 0} {25 15 0} {15 5 0} {5 33 0} 
Flow 189: {9 24 0} {24 17 0} {17 8 0} {8 22 0} {22 50 0} 
Flow 207: {10 14 0} {14 42 0} 
Flow 219: {20 19 0} {19 28 0} {28 56 0} 
Flow 255: {12 11 0} {11 39 0} 
Flow 281: {13 12 0} {12 40 0} 
Flow 303: {14 13 0} {13 41 0} 
Flow 304: {15 21 0} {21 16 0} {16 44 0} 
Flow 390: {18 11 0} {11 12 0} {12 13 0} {13 14 0} {14 10 0} {10 9 0} {9 25 0} {25 53 0} 
Flow 413: {19 20 0} {20 16 0} {16 21 0} {21 49 0} 
Flow 443: {25 24 0} {24 52 0} 
Flow 462: {21 15 0} {15 43 0} 
Flow 485: {23 25 0} {25 9 0} {9 37 0} 
Flow 507: {17 23 0} {23 21 0} {21 3 0} {3 4 0} {4 32 0} 
Flow 511: {24 9 0} {9 10 0} {10 38 0} 
Flow 558: {2 7 0} {7 35 0} 
Flow 570: {27 28 0} {28 19 0} {19 47 0} 
Flow 579: {28 27 0} {27 26 0} {26 4 0} {4 2 0} {2 1 0} {1 29 0} 
Flow 586: {16 22 0} {22 8 0} {8 36 0} 
Time taken running everything: 2 seconds
