networks/zoo_56_605/zoo_56_605-lower.sol
<?xml version = "1.0" encoding="UTF-8" standalone="yes"?>
<CPLEXSolution version="1.2">
 <header
   problemName="networks/zoo_56_605/zoo_56_605-lower.lp"
   solutionName="incumbent"
   solutionIndex="-1"
   objectiveValue="29"
   solutionTypeValue="3"
   solutionTypeString="primal"
   solutionStatusValue="101"
   solutionStatusString="integer optimal solution"
   solutionMethodString="mip"
   primalFeasible="1"
   dualFeasible="1"
   MIPNodes="0"
   MIPIterations="1733"
   writeLevel="3"/>
 <quality
   epInt="1.0000000000000001e-05"
   epRHS="9.9999999999999995e-07"
   maxIntInfeas="0"
   maxPrimalInfeas="0"
   maxX="1"
   maxSlack="1"/>
 <variables>
  <variable name="Y(17,18)" index="913" value="1"/>
  <variable name="Y(22,23)" index="1198" value="1"/>
  <variable name="Y(25,26)" index="1369" value="1"/>
  <variable name="Y(26,27)" index="1426" value="1"/>
  <variable name="Y(46,20)" index="2539" value="1"/>
  <variable name="Y(55,7)" index="3030" value="1"/>
  <variable name="Y(86,6)" index="4765" value="1"/>
  <variable name="Y(111,17)" index="6176" value="1"/>
  <variable name="Y(116,2)" index="6441" value="1"/>
  <variable name="Y(144,3)" index="8010" value="1"/>
  <variable name="Y(146,5)" index="8124" value="1"/>
  <variable name="Y(189,22)" index="10549" value="1"/>
  <variable name="Y(207,14)" index="11549" value="1"/>
  <variable name="Y(219,28)" index="12235" value="1"/>
  <variable name="Y(255,11)" index="14234" value="1"/>
  <variable name="Y(281,12)" index="15691" value="1"/>
  <variable name="Y(303,13)" index="16924" value="1"/>
  <variable name="Y(304,16)" index="16983" value="1"/>
  <variable name="Y(390,25)" index="21808" value="1"/>
  <variable name="Y(413,21)" index="23092" value="1"/>
  <variable name="Y(443,24)" index="24775" value="1"/>
  <variable name="Y(462,15)" index="25830" value="1"/>
  <variable name="Y(485,9)" index="27112" value="1"/>
  <variable name="Y(507,4)" index="28339" value="1"/>
  <variable name="Y(511,10)" index="28569" value="1"/>
  <variable name="Y(558,7)" index="31198" value="1"/>
  <variable name="Y(570,19)" index="31882" value="1"/>
  <variable name="Y(579,1)" index="32368" value="1"/>
  <variable name="Y(586,8)" index="32767" value="1"/>
  <variable name="X(1,2,25)" index="33904" value="1"/>
  <variable name="X(1,7,22)" index="34506" value="1"/>
  <variable name="X(1,29,579)" index="35668" value="1"/>
  <variable name="X(2,1,579)" index="36273" value="1"/>
  <variable name="X(2,4,25)" index="36324" value="1"/>
  <variable name="X(2,7,558)" index="37462" value="1"/>
  <variable name="X(2,30,116)" index="37625" value="1"/>
  <variable name="X(3,4,507)" index="38621" value="1"/>
  <variable name="X(3,7,55)" index="38774" value="1"/>
  <variable name="X(3,16,46)" index="39370" value="1"/>
  <variable name="X(3,21,22)" index="39951" value="1"/>
  <variable name="X(3,31,144)" index="40678" value="1"/>
  <variable name="X(4,2,579)" index="41718" value="1"/>
  <variable name="X(4,3,46)" index="41790" value="1"/>
  <variable name="X(4,26,25)" index="42374" value="1"/>
  <variable name="X(4,32,507)" index="43461" value="1"/>
  <variable name="X(5,15,86)" index="43645" value="1"/>
  <variable name="X(5,33,146)" index="44310" value="1"/>
  <variable name="X(6,15,111)" index="44880" value="1"/>
  <variable name="X(6,34,86)" index="45460" value="1"/>
  <variable name="X(7,1,55)" index="46034" value="1"/>
  <variable name="X(7,2,116)" index="46700" value="1"/>
  <variable name="X(7,3,22)" index="47211" value="1"/>
  <variable name="X(7,35,558)" index="48352" value="1"/>
  <variable name="X(8,17,146)" index="48545" value="1"/>
  <variable name="X(8,22,189)" index="49193" value="1"/>
  <variable name="X(8,36,586)" index="50195" value="1"/>
  <variable name="X(9,10,511)" index="50725" value="1"/>
  <variable name="X(9,24,189)" index="51008" value="1"/>
  <variable name="X(9,25,390)" index="51814" value="1"/>
  <variable name="X(9,37,485)" index="52514" value="1"/>
  <variable name="X(10,9,390)" index="53024" value="1"/>
  <variable name="X(10,14,207)" index="53446" value="1"/>
  <variable name="X(10,38,511)" index="54355" value="1"/>
  <variable name="X(11,12,390)" index="54839" value="1"/>
  <variable name="X(11,18,17)" index="55071" value="1"/>
  <variable name="X(11,39,255)" index="55914" value="1"/>
  <variable name="X(12,11,255)" index="56519" value="1"/>
  <variable name="X(12,13,390)" index="57259" value="1"/>
  <variable name="X(12,40,281)" index="57755" value="1"/>
  <variable name="X(13,12,281)" index="58360" value="1"/>
  <variable name="X(13,14,390)" index="59074" value="1"/>
  <variable name="X(13,41,303)" index="59592" value="1"/>
  <variable name="X(14,10,390)" index="60284" value="1"/>
  <variable name="X(14,13,303)" index="60802" value="1"/>
  <variable name="X(14,42,207)" index="61311" value="1"/>
  <variable name="X(15,5,146)" index="61855" value="1"/>
  <variable name="X(15,6,86)" index="62400" value="1"/>
  <variable name="X(15,21,304)" index="63223" value="1"/>
  <variable name="X(15,25,111)" index="63635" value="1"/>
  <variable name="X(15,43,462)" index="64591" value="1"/>
  <variable name="X(16,3,144)" index="64878" value="1"/>
  <variable name="X(16,20,46)" index="65385" value="1"/>
  <variable name="X(16,21,413)" index="66357" value="1"/>
  <variable name="X(16,22,586)" index="67135" value="1"/>
  <variable name="X(16,44,304)" index="67458" value="1"/>
  <variable name="X(17,8,189)" index="67948" value="1"/>
  <variable name="X(17,23,507)" index="68871" value="1"/>
  <variable name="X(17,24,146)" index="69115" value="1"/>
  <variable name="X(17,45,111)" index="69685" value="1"/>
  <variable name="X(18,11,390)" index="70569" value="1"/>
  <variable name="X(18,46,17)" index="70801" value="1"/>
  <variable name="X(19,20,413)" index="71802" value="1"/>
  <variable name="X(19,28,219)" index="72213" value="1"/>
  <variable name="X(19,47,570)" index="73169" value="1"/>
  <variable name="X(20,16,413)" index="73617" value="1"/>
  <variable name="X(20,19,219)" index="74028" value="1"/>
  <variable name="X(20,48,46)" index="74460" value="1"/>
  <variable name="X(21,3,507)" index="75526" value="1"/>
  <variable name="X(21,15,462)" index="76086" value="1"/>
  <variable name="X(21,16,304)" index="76533" value="1"/>
  <variable name="X(21,23,22)" index="76856" value="1"/>
  <variable name="X(21,49,413)" index="77852" value="1"/>
  <variable name="X(22,8,586)" index="78630" value="1"/>
  <variable name="X(22,16,144)" index="78793" value="1"/>
  <variable name="X(22,50,189)" index="79443" value="1"/>
  <variable name="X(23,17,111)" index="79970" value="1"/>
  <variable name="X(23,21,507)" index="80971" value="1"/>
  <variable name="X(23,25,485)" index="81554" value="1"/>
  <variable name="X(23,51,22)" index="81696" value="1"/>
  <variable name="X(24,9,511)" index="82790" value="1"/>
  <variable name="X(24,17,189)" index="83073" value="1"/>
  <variable name="X(24,25,146)" index="83635" value="1"/>
  <variable name="X(24,52,443)" index="84537" value="1"/>
  <variable name="X(25,9,485)" index="85184" value="1"/>
  <variable name="X(25,15,146)" index="85450" value="1"/>
  <variable name="X(25,23,111)" index="86020" value="1"/>
  <variable name="X(25,24,443)" index="86957" value="1"/>
  <variable name="X(25,53,390)" index="87509" value="1"/>
  <variable name="X(26,4,579)" index="88303" value="1"/>
  <variable name="X(26,27,26)" index="88355" value="1"/>
  <variable name="X(26,54,25)" index="88959" value="1"/>
  <variable name="X(27,26,579)" index="90118" value="1"/>
  <variable name="X(27,28,570)" index="90714" value="1"/>
  <variable name="X(27,55,26)" index="90775" value="1"/>
  <variable name="X(28,19,570)" index="91924" value="1"/>
  <variable name="X(28,27,579)" index="92538" value="1"/>
  <variable name="X(28,56,219)" index="92783" value="1"/>
 </variables>
</CPLEXSolution>
